c generated by sgen
p cnf 57 124
-2 -3 -4 0
-1 -3 -4 0
-1 -2 -4 0
-1 -2 -3 0
-6 -7 -8 0
-5 -7 -8 0
-5 -6 -8 0
-5 -6 -7 0
-10 -11 -12 0
-9 -11 -12 0
-9 -10 -12 0
-9 -10 -11 0
-14 -15 -16 0
-13 -15 -16 0
-13 -14 -16 0
-13 -14 -15 0
-18 -19 -20 0
-17 -19 -20 0
-17 -18 -20 0
-17 -18 -19 0
-22 -23 -24 0
-21 -23 -24 0
-21 -22 -24 0
-21 -22 -23 0
-26 -27 -28 0
-25 -27 -28 0
-25 -26 -28 0
-25 -26 -27 0
-30 -31 -32 0
-29 -31 -32 0
-29 -30 -32 0
-29 -30 -31 0
-34 -35 -36 0
-33 -35 -36 0
-33 -34 -36 0
-33 -34 -35 0
-38 -39 -40 0
-37 -39 -40 0
-37 -38 -40 0
-37 -38 -39 0
-42 -43 -44 0
-41 -43 -44 0
-41 -42 -44 0
-41 -42 -43 0
-46 -47 -48 0
-45 -47 -48 0
-45 -46 -48 0
-45 -46 -47 0
-50 -51 -52 0
-49 -51 -52 0
-49 -50 -52 0
-49 -50 -51 0
-53 -54 -55 0
-53 -54 -56 0
-53 -54 -57 0
-53 -55 -56 0
-53 -55 -57 0
-53 -56 -57 0
-54 -55 -56 0
-54 -55 -57 0
-54 -56 -57 0
-55 -56 -57 0
24 39 8 0
15 39 8 0
15 24 8 0
15 24 39 0
51 31 10 0
14 31 10 0
14 51 10 0
14 51 31 0
29 21 19 0
46 21 19 0
46 29 19 0
46 29 21 0
23 4 49 0
42 4 49 0
42 23 49 0
42 23 4 0
6 41 30 0
25 41 30 0
25 6 30 0
25 6 41 0
36 2 12 0
26 2 12 0
26 36 12 0
26 36 2 0
27 20 52 0
37 20 52 0
37 27 52 0
37 27 20 0
44 40 57 0
11 40 57 0
11 44 57 0
11 44 40 0
35 50 7 0
47 50 7 0
47 35 7 0
47 35 50 0
55 22 45 0
28 22 45 0
28 55 45 0
28 55 22 0
3 48 53 0
16 48 53 0
16 3 53 0
16 3 48 0
13 18 43 0
34 18 43 0
34 13 43 0
34 13 18 0
38 32 56 0
33 32 56 0
33 38 56 0
33 38 32 0
5 1 17 0
5 1 54 0
5 1 9 0
5 17 54 0
5 17 9 0
5 54 9 0
1 17 54 0
1 17 9 0
1 54 9 0
17 54 9 0
